
  32    4
  10   10   10   10

   0   0   0   0   0   1 2 
   2   0   1   1   1   1 3 
   6   1   4   2   0   1 4 
   8   3   3   8   0   1 5 
   2   4   0   3   8   1 6 
   2   3   6   0   3   1 7 
   8   0   3   4   2   1 8 
   4   4   4   0   3   1 9 
   5   2   7   0   5   1 10 
   6   4   2   0   4   1 11 
   9   0   3   2   5   2 17 12 
   6   6   7   0   1   1 13 
  10   0   3   4   2   1 14 
   7   3   0   4   4   1 15 
   3   3   0   4   3   4 31 19 18 16 
   5   7   3   0   6   2 27 20 
   1   0   5   3   7   2 27 19 
   1   0   6   2   3   2 27 21 
   3   5   5   0   2   1 21 
  10   3   2   4   0   1 21 
   5   2   6   6   0   1 22 
   8   2   0   3   7   1 23 
   4   0   6   5   8   1 24 
   5   4   0   4   3   2 30 25 
   7   0   3   4   3   1 26 
   9   9   0   6   4   1 28 
   2   0   3   8   3   1 28 
  10   6   0   2   2   1 29 
   8   5   0   6   6   1 32
   8   4   1   0   5   1 32
   5   0   5   3   4   1 32
   0   0   0   0   0   0 
